c File: flat100_3_0.col
c
c SOURCE: Joseph Culberson (joe@cs.ualberta.ca)
c DESCRIPTION: Quasi-random coloring problem
c              generated with flatness = 0
c                             probability = 0.072
c                             known coloring = 3
c                             random seed = 1025
c              Creation Date:  Thu Jun  4 18:55:14 1998
c Maximum degree = 8 Minimum degree = 1
c p edge 100 239
c cnf created by edge2cnf
p cnf 300 1117
-1 -2 0
-1 -3 0
-2 -3 0
1 2 3 0
-4 -5 0
-4 -6 0
-5 -6 0
4 5 6 0
-7 -8 0
-7 -9 0
-8 -9 0
7 8 9 0
-10 -11 0
-10 -12 0
-11 -12 0
10 11 12 0
-13 -14 0
-13 -15 0
-14 -15 0
13 14 15 0
-16 -17 0
-16 -18 0
-17 -18 0
16 17 18 0
-19 -20 0
-19 -21 0
-20 -21 0
19 20 21 0
-22 -23 0
-22 -24 0
-23 -24 0
22 23 24 0
-25 -26 0
-25 -27 0
-26 -27 0
25 26 27 0
-28 -29 0
-28 -30 0
-29 -30 0
28 29 30 0
-31 -32 0
-31 -33 0
-32 -33 0
31 32 33 0
-34 -35 0
-34 -36 0
-35 -36 0
34 35 36 0
-37 -38 0
-37 -39 0
-38 -39 0
37 38 39 0
-40 -41 0
-40 -42 0
-41 -42 0
40 41 42 0
-43 -44 0
-43 -45 0
-44 -45 0
43 44 45 0
-46 -47 0
-46 -48 0
-47 -48 0
46 47 48 0
-49 -50 0
-49 -51 0
-50 -51 0
49 50 51 0
-52 -53 0
-52 -54 0
-53 -54 0
52 53 54 0
-55 -56 0
-55 -57 0
-56 -57 0
55 56 57 0
-58 -59 0
-58 -60 0
-59 -60 0
58 59 60 0
-61 -62 0
-61 -63 0
-62 -63 0
61 62 63 0
-64 -65 0
-64 -66 0
-65 -66 0
64 65 66 0
-67 -68 0
-67 -69 0
-68 -69 0
67 68 69 0
-70 -71 0
-70 -72 0
-71 -72 0
70 71 72 0
-73 -74 0
-73 -75 0
-74 -75 0
73 74 75 0
-76 -77 0
-76 -78 0
-77 -78 0
76 77 78 0
-79 -80 0
-79 -81 0
-80 -81 0
79 80 81 0
-82 -83 0
-82 -84 0
-83 -84 0
82 83 84 0
-85 -86 0
-85 -87 0
-86 -87 0
85 86 87 0
-88 -89 0
-88 -90 0
-89 -90 0
88 89 90 0
-91 -92 0
-91 -93 0
-92 -93 0
91 92 93 0
-94 -95 0
-94 -96 0
-95 -96 0
94 95 96 0
-97 -98 0
-97 -99 0
-98 -99 0
97 98 99 0
-100 -101 0
-100 -102 0
-101 -102 0
100 101 102 0
-103 -104 0
-103 -105 0
-104 -105 0
103 104 105 0
-106 -107 0
-106 -108 0
-107 -108 0
106 107 108 0
-109 -110 0
-109 -111 0
-110 -111 0
109 110 111 0
-112 -113 0
-112 -114 0
-113 -114 0
112 113 114 0
-115 -116 0
-115 -117 0
-116 -117 0
115 116 117 0
-118 -119 0
-118 -120 0
-119 -120 0
118 119 120 0
-121 -122 0
-121 -123 0
-122 -123 0
121 122 123 0
-124 -125 0
-124 -126 0
-125 -126 0
124 125 126 0
-127 -128 0
-127 -129 0
-128 -129 0
127 128 129 0
-130 -131 0
-130 -132 0
-131 -132 0
130 131 132 0
-133 -134 0
-133 -135 0
-134 -135 0
133 134 135 0
-136 -137 0
-136 -138 0
-137 -138 0
136 137 138 0
-139 -140 0
-139 -141 0
-140 -141 0
139 140 141 0
-142 -143 0
-142 -144 0
-143 -144 0
142 143 144 0
-145 -146 0
-145 -147 0
-146 -147 0
145 146 147 0
-148 -149 0
-148 -150 0
-149 -150 0
148 149 150 0
-151 -152 0
-151 -153 0
-152 -153 0
151 152 153 0
-154 -155 0
-154 -156 0
-155 -156 0
154 155 156 0
-157 -158 0
-157 -159 0
-158 -159 0
157 158 159 0
-160 -161 0
-160 -162 0
-161 -162 0
160 161 162 0
-163 -164 0
-163 -165 0
-164 -165 0
163 164 165 0
-166 -167 0
-166 -168 0
-167 -168 0
166 167 168 0
-169 -170 0
-169 -171 0
-170 -171 0
169 170 171 0
-172 -173 0
-172 -174 0
-173 -174 0
172 173 174 0
-175 -176 0
-175 -177 0
-176 -177 0
175 176 177 0
-178 -179 0
-178 -180 0
-179 -180 0
178 179 180 0
-181 -182 0
-181 -183 0
-182 -183 0
181 182 183 0
-184 -185 0
-184 -186 0
-185 -186 0
184 185 186 0
-187 -188 0
-187 -189 0
-188 -189 0
187 188 189 0
-190 -191 0
-190 -192 0
-191 -192 0
190 191 192 0
-193 -194 0
-193 -195 0
-194 -195 0
193 194 195 0
-196 -197 0
-196 -198 0
-197 -198 0
196 197 198 0
-199 -200 0
-199 -201 0
-200 -201 0
199 200 201 0
-202 -203 0
-202 -204 0
-203 -204 0
202 203 204 0
-205 -206 0
-205 -207 0
-206 -207 0
205 206 207 0
-208 -209 0
-208 -210 0
-209 -210 0
208 209 210 0
-211 -212 0
-211 -213 0
-212 -213 0
211 212 213 0
-214 -215 0
-214 -216 0
-215 -216 0
214 215 216 0
-217 -218 0
-217 -219 0
-218 -219 0
217 218 219 0
-220 -221 0
-220 -222 0
-221 -222 0
220 221 222 0
-223 -224 0
-223 -225 0
-224 -225 0
223 224 225 0
-226 -227 0
-226 -228 0
-227 -228 0
226 227 228 0
-229 -230 0
-229 -231 0
-230 -231 0
229 230 231 0
-232 -233 0
-232 -234 0
-233 -234 0
232 233 234 0
-235 -236 0
-235 -237 0
-236 -237 0
235 236 237 0
-238 -239 0
-238 -240 0
-239 -240 0
238 239 240 0
-241 -242 0
-241 -243 0
-242 -243 0
241 242 243 0
-244 -245 0
-244 -246 0
-245 -246 0
244 245 246 0
-247 -248 0
-247 -249 0
-248 -249 0
247 248 249 0
-250 -251 0
-250 -252 0
-251 -252 0
250 251 252 0
-253 -254 0
-253 -255 0
-254 -255 0
253 254 255 0
-256 -257 0
-256 -258 0
-257 -258 0
256 257 258 0
-259 -260 0
-259 -261 0
-260 -261 0
259 260 261 0
-262 -263 0
-262 -264 0
-263 -264 0
262 263 264 0
-265 -266 0
-265 -267 0
-266 -267 0
265 266 267 0
-268 -269 0
-268 -270 0
-269 -270 0
268 269 270 0
-271 -272 0
-271 -273 0
-272 -273 0
271 272 273 0
-274 -275 0
-274 -276 0
-275 -276 0
274 275 276 0
-277 -278 0
-277 -279 0
-278 -279 0
277 278 279 0
-280 -281 0
-280 -282 0
-281 -282 0
280 281 282 0
-283 -284 0
-283 -285 0
-284 -285 0
283 284 285 0
-286 -287 0
-286 -288 0
-287 -288 0
286 287 288 0
-289 -290 0
-289 -291 0
-290 -291 0
289 290 291 0
-292 -293 0
-292 -294 0
-293 -294 0
292 293 294 0
-295 -296 0
-295 -297 0
-296 -297 0
295 296 297 0
-298 -299 0
-298 -300 0
-299 -300 0
298 299 300 0
-154 -1 0
-155 -2 0
-156 -3 0
-235 -1 0
-236 -2 0
-237 -3 0
-268 -1 0
-269 -2 0
-270 -3 0
-274 -1 0
-275 -2 0
-276 -3 0
-292 -1 0
-293 -2 0
-294 -3 0
-193 -4 0
-194 -5 0
-195 -6 0
-121 -7 0
-122 -8 0
-123 -9 0
-127 -7 0
-128 -8 0
-129 -9 0
-169 -7 0
-170 -8 0
-171 -9 0
-199 -7 0
-200 -8 0
-201 -9 0
-208 -7 0
-209 -8 0
-210 -9 0
-223 -10 0
-224 -11 0
-225 -12 0
-250 -10 0
-251 -11 0
-252 -12 0
-277 -10 0
-278 -11 0
-279 -12 0
-139 -13 0
-140 -14 0
-141 -15 0
-157 -13 0
-158 -14 0
-159 -15 0
-163 -13 0
-164 -14 0
-165 -15 0
-172 -13 0
-173 -14 0
-174 -15 0
-130 -16 0
-131 -17 0
-132 -18 0
-160 -16 0
-161 -17 0
-162 -18 0
-190 -16 0
-191 -17 0
-192 -18 0
-199 -16 0
-200 -17 0
-201 -18 0
-271 -16 0
-272 -17 0
-273 -18 0
-103 -19 0
-104 -20 0
-105 -21 0
-133 -19 0
-134 -20 0
-135 -21 0
-145 -19 0
-146 -20 0
-147 -21 0
-178 -19 0
-179 -20 0
-180 -21 0
-277 -19 0
-278 -20 0
-279 -21 0
-283 -19 0
-284 -20 0
-285 -21 0
-289 -19 0
-290 -20 0
-291 -21 0
-112 -22 0
-113 -23 0
-114 -24 0
-211 -22 0
-212 -23 0
-213 -24 0
-103 -25 0
-104 -26 0
-105 -27 0
-151 -25 0
-152 -26 0
-153 -27 0
-226 -25 0
-227 -26 0
-228 -27 0
-259 -25 0
-260 -26 0
-261 -27 0
-277 -25 0
-278 -26 0
-279 -27 0
-169 -28 0
-170 -29 0
-171 -30 0
-202 -28 0
-203 -29 0
-204 -30 0
-205 -28 0
-206 -29 0
-207 -30 0
-220 -28 0
-221 -29 0
-222 -30 0
-250 -28 0
-251 -29 0
-252 -30 0
-106 -31 0
-107 -32 0
-108 -33 0
-211 -31 0
-212 -32 0
-213 -33 0
-241 -31 0
-242 -32 0
-243 -33 0
-289 -31 0
-290 -32 0
-291 -33 0
-292 -31 0
-293 -32 0
-294 -33 0
-115 -34 0
-116 -35 0
-117 -36 0
-157 -34 0
-158 -35 0
-159 -36 0
-115 -37 0
-116 -38 0
-117 -39 0
-154 -37 0
-155 -38 0
-156 -39 0
-214 -37 0
-215 -38 0
-216 -39 0
-217 -37 0
-218 -38 0
-219 -39 0
-109 -40 0
-110 -41 0
-111 -42 0
-145 -40 0
-146 -41 0
-147 -42 0
-154 -40 0
-155 -41 0
-156 -42 0
-193 -40 0
-194 -41 0
-195 -42 0
-220 -40 0
-221 -41 0
-222 -42 0
-226 -40 0
-227 -41 0
-228 -42 0
-238 -40 0
-239 -41 0
-240 -42 0
-259 -40 0
-260 -41 0
-261 -42 0
-145 -43 0
-146 -44 0
-147 -45 0
-151 -43 0
-152 -44 0
-153 -45 0
-181 -43 0
-182 -44 0
-183 -45 0
-268 -43 0
-269 -44 0
-270 -45 0
-103 -46 0
-104 -47 0
-105 -48 0
-130 -46 0
-131 -47 0
-132 -48 0
-142 -46 0
-143 -47 0
-144 -48 0
-175 -46 0
-176 -47 0
-177 -48 0
-214 -46 0
-215 -47 0
-216 -48 0
-250 -46 0
-251 -47 0
-252 -48 0
-271 -46 0
-272 -47 0
-273 -48 0
-130 -49 0
-131 -50 0
-132 -51 0
-133 -49 0
-134 -50 0
-135 -51 0
-157 -49 0
-158 -50 0
-159 -51 0
-214 -49 0
-215 -50 0
-216 -51 0
-259 -49 0
-260 -50 0
-261 -51 0
-106 -52 0
-107 -53 0
-108 -54 0
-136 -52 0
-137 -53 0
-138 -54 0
-253 -52 0
-254 -53 0
-255 -54 0
-259 -52 0
-260 -53 0
-261 -54 0
-235 -55 0
-236 -56 0
-237 -57 0
-247 -55 0
-248 -56 0
-249 -57 0
-286 -55 0
-287 -56 0
-288 -57 0
-292 -55 0
-293 -56 0
-294 -57 0
-127 -58 0
-128 -59 0
-129 -60 0
-151 -58 0
-152 -59 0
-153 -60 0
-223 -58 0
-224 -59 0
-225 -60 0
-235 -58 0
-236 -59 0
-237 -60 0
-262 -58 0
-263 -59 0
-264 -60 0
-265 -58 0
-266 -59 0
-267 -60 0
-136 -61 0
-137 -62 0
-138 -63 0
-226 -61 0
-227 -62 0
-228 -63 0
-283 -61 0
-284 -62 0
-285 -63 0
-286 -61 0
-287 -62 0
-288 -63 0
-190 -64 0
-191 -65 0
-192 -66 0
-220 -64 0
-221 -65 0
-222 -66 0
-229 -64 0
-230 -65 0
-231 -66 0
-247 -64 0
-248 -65 0
-249 -66 0
-256 -64 0
-257 -65 0
-258 -66 0
-106 -67 0
-107 -68 0
-108 -69 0
-142 -67 0
-143 -68 0
-144 -69 0
-154 -67 0
-155 -68 0
-156 -69 0
-160 -67 0
-161 -68 0
-162 -69 0
-235 -67 0
-236 -68 0
-237 -69 0
-244 -67 0
-245 -68 0
-246 -69 0
-103 -70 0
-104 -71 0
-105 -72 0
-121 -70 0
-122 -71 0
-123 -72 0
-130 -70 0
-131 -71 0
-132 -72 0
-196 -70 0
-197 -71 0
-198 -72 0
-280 -70 0
-281 -71 0
-282 -72 0
-112 -73 0
-113 -74 0
-114 -75 0
-136 -73 0
-137 -74 0
-138 -75 0
-172 -73 0
-173 -74 0
-174 -75 0
-199 -73 0
-200 -74 0
-201 -75 0
-202 -73 0
-203 -74 0
-204 -75 0
-208 -73 0
-209 -74 0
-210 -75 0
-265 -73 0
-266 -74 0
-267 -75 0
-283 -73 0
-284 -74 0
-285 -75 0
-139 -76 0
-140 -77 0
-141 -78 0
-232 -76 0
-233 -77 0
-234 -78 0
-247 -76 0
-248 -77 0
-249 -78 0
-283 -76 0
-284 -77 0
-285 -78 0
-181 -79 0
-182 -80 0
-183 -81 0
-184 -79 0
-185 -80 0
-186 -81 0
-193 -79 0
-194 -80 0
-195 -81 0
-289 -79 0
-290 -80 0
-291 -81 0
-118 -82 0
-119 -83 0
-120 -84 0
-139 -82 0
-140 -83 0
-141 -84 0
-223 -82 0
-224 -83 0
-225 -84 0
-160 -85 0
-161 -86 0
-162 -87 0
-169 -85 0
-170 -86 0
-171 -87 0
-175 -85 0
-176 -86 0
-177 -87 0
-250 -85 0
-251 -86 0
-252 -87 0
-277 -85 0
-278 -86 0
-279 -87 0
-280 -85 0
-281 -86 0
-282 -87 0
-298 -85 0
-299 -86 0
-300 -87 0
-109 -88 0
-110 -89 0
-111 -90 0
-139 -88 0
-140 -89 0
-141 -90 0
-148 -88 0
-149 -89 0
-150 -90 0
-172 -88 0
-173 -89 0
-174 -90 0
-214 -88 0
-215 -89 0
-216 -90 0
-145 -91 0
-146 -92 0
-147 -93 0
-193 -91 0
-194 -92 0
-195 -93 0
-223 -91 0
-224 -92 0
-225 -93 0
-247 -91 0
-248 -92 0
-249 -93 0
-280 -91 0
-281 -92 0
-282 -93 0
-289 -91 0
-290 -92 0
-291 -93 0
-121 -94 0
-122 -95 0
-123 -96 0
-142 -94 0
-143 -95 0
-144 -96 0
-181 -94 0
-182 -95 0
-183 -96 0
-220 -94 0
-221 -95 0
-222 -96 0
-238 -94 0
-239 -95 0
-240 -96 0
-271 -94 0
-272 -95 0
-273 -96 0
-112 -97 0
-113 -98 0
-114 -99 0
-157 -97 0
-158 -98 0
-159 -99 0
-172 -97 0
-173 -98 0
-174 -99 0
-148 -100 0
-149 -101 0
-150 -102 0
-208 -100 0
-209 -101 0
-210 -102 0
-229 -100 0
-230 -101 0
-231 -102 0
-295 -100 0
-296 -101 0
-297 -102 0
-214 -103 0
-215 -104 0
-216 -105 0
-268 -103 0
-269 -104 0
-270 -105 0
-286 -103 0
-287 -104 0
-288 -105 0
-238 -106 0
-239 -107 0
-240 -108 0
-259 -106 0
-260 -107 0
-261 -108 0
-202 -112 0
-203 -113 0
-204 -114 0
-283 -112 0
-284 -113 0
-285 -114 0
-241 -115 0
-242 -116 0
-243 -117 0
-259 -115 0
-260 -116 0
-261 -117 0
-298 -115 0
-299 -116 0
-300 -117 0
-205 -118 0
-206 -119 0
-207 -120 0
-232 -121 0
-233 -122 0
-234 -123 0
-265 -121 0
-266 -122 0
-267 -123 0
-292 -121 0
-293 -122 0
-294 -123 0
-205 -124 0
-206 -125 0
-207 -126 0
-202 -127 0
-203 -128 0
-204 -129 0
-205 -130 0
-206 -131 0
-207 -132 0
-211 -130 0
-212 -131 0
-213 -132 0
-283 -130 0
-284 -131 0
-285 -132 0
-286 -130 0
-287 -131 0
-288 -132 0
-235 -133 0
-236 -134 0
-237 -135 0
-286 -133 0
-287 -134 0
-288 -135 0
-217 -136 0
-218 -137 0
-219 -138 0
-280 -136 0
-281 -137 0
-282 -138 0
-289 -136 0
-290 -137 0
-291 -138 0
-292 -136 0
-293 -137 0
-294 -138 0
-256 -139 0
-257 -140 0
-258 -141 0
-274 -139 0
-275 -140 0
-276 -141 0
-217 -142 0
-218 -143 0
-219 -144 0
-250 -142 0
-251 -143 0
-252 -144 0
-277 -142 0
-278 -143 0
-279 -144 0
-214 -145 0
-215 -146 0
-216 -147 0
-259 -145 0
-260 -146 0
-261 -147 0
-262 -145 0
-263 -146 0
-264 -147 0
-232 -148 0
-233 -149 0
-234 -150 0
-235 -151 0
-236 -152 0
-237 -153 0
-256 -151 0
-257 -152 0
-258 -153 0
-223 -154 0
-224 -155 0
-225 -156 0
-244 -154 0
-245 -155 0
-246 -156 0
-214 -157 0
-215 -158 0
-216 -159 0
-274 -157 0
-275 -158 0
-276 -159 0
-277 -157 0
-278 -158 0
-279 -159 0
-208 -160 0
-209 -161 0
-210 -162 0
-274 -160 0
-275 -161 0
-276 -162 0
-202 -163 0
-203 -164 0
-204 -165 0
-268 -163 0
-269 -164 0
-270 -165 0
-217 -166 0
-218 -167 0
-219 -168 0
-298 -166 0
-299 -167 0
-300 -168 0
-217 -169 0
-218 -170 0
-219 -171 0
-238 -169 0
-239 -170 0
-240 -171 0
-250 -169 0
-251 -170 0
-252 -171 0
-292 -169 0
-293 -170 0
-294 -171 0
-214 -172 0
-215 -173 0
-216 -174 0
-241 -172 0
-242 -173 0
-243 -174 0
-247 -172 0
-248 -173 0
-249 -174 0
-277 -172 0
-278 -173 0
-279 -174 0
-220 -175 0
-221 -176 0
-222 -177 0
-232 -175 0
-233 -176 0
-234 -177 0
-277 -175 0
-278 -176 0
-279 -177 0
-283 -175 0
-284 -176 0
-285 -177 0
-208 -178 0
-209 -179 0
-210 -180 0
-220 -178 0
-221 -179 0
-222 -180 0
-265 -178 0
-266 -179 0
-267 -180 0
-211 -181 0
-212 -182 0
-213 -183 0
-205 -184 0
-206 -185 0
-207 -186 0
-286 -187 0
-287 -188 0
-288 -189 0
-226 -190 0
-227 -191 0
-228 -192 0
-268 -190 0
-269 -191 0
-270 -192 0
-271 -190 0
-272 -191 0
-273 -192 0
-208 -193 0
-209 -194 0
-210 -195 0
-223 -193 0
-224 -194 0
-225 -195 0
-265 -193 0
-266 -194 0
-267 -195 0
-268 -193 0
-269 -194 0
-270 -195 0
-211 -196 0
-212 -197 0
-213 -198 0
-256 -196 0
-257 -197 0
-258 -198 0
-265 -196 0
-266 -197 0
-267 -198 0
-211 -199 0
-212 -200 0
-213 -201 0
-289 -199 0
-290 -200 0
-291 -201 0
